
        $ From http://www.csplib.org/Problems/prob009/data/helmut.pdf
        $ Problem number 197
        $ Sequence length : 25
        language ESSENCE' 1.0
        letting sizemaster be 603
        letting sizes be sequence(7,11,12,14,21,25,32,40,52,56,60,67,68,81,91,92,132,144,149,163,177,191,196,235,263)
        